decision_x1=[0,2];
decision_x2=[0,2];
decision_x3=[0,2];
decision_x4=[0,2];
decision_x5=[0,2];
decision_x6=[0,2];
decision_x7=[0,2];
decision_x8=[0,2];
decision_x9=[0,2];
decision_x10=[0,2];
random_y1=[0,2];
random_y2=[0,2];
constraint_x2_x1=[
0,1,2.2|
0,2,8.5|
1,0,5.9|
1,2,9.7|
2,0,1.7|
2,1,7.3|
];
constraint_x3_x1=[
0,1,4.7|
0,2,5.8|
1,0,8.5|
1,2,2.7|
2,0,9.4|
2,1,7.6|
];
constraint_x4_x1=[
0,1,8.7|
0,2,0.88|
1,0,5.7|
1,2,3.9|
2,0,5.8|
2,1,4.3|
];
constraint_x4_x2=[
0,1,3|
0,2,3.4|
1,0,9.4|
1,2,2.4|
2,0,2.9|
2,1,8.6|
];
constraint_x5_x4=[
0,1,7|
0,2,0.45|
1,0,3.4|
1,2,7.9|
2,0,4.6|
2,1,8.7|
];
constraint_x6_x1=[
0,1,4.8|
0,2,1.7|
1,0,5.7|
1,2,5.4|
2,0,4.8|
2,1,4.2|
];
constraint_x6_x2=[
0,1,6.8|
0,2,0.14|
1,0,0.95|
1,2,5.2|
2,0,3.6|
2,1,3|
];
constraint_x6_x4=[
0,1,2.9|
0,2,2.5|
1,0,0.41|
1,2,10|
2,0,1.3|
2,1,0.25|
];
constraint_x7_x1=[
0,1,3.5|
0,2,6.8|
1,0,4.3|
1,2,6.8|
2,0,2.1|
2,1,1.5|
];
constraint_x7_x3=[
0,1,4.7|
0,2,5|
1,0,2.5|
1,2,9.6|
2,0,4.2|
2,1,8.2|
];
constraint_x7_x6=[
0,1,6.5|
0,2,7.5|
1,0,6.8|
1,2,4.3|
2,0,3|
2,1,0.56|
];
constraint_x8_x3=[
0,1,1.4|
0,2,1.8|
1,0,4.6|
1,2,4.5|
2,0,1.6|
2,1,5.3|
];
constraint_x8_x4=[
0,1,1.7|
0,2,4.8|
1,0,6.4|
1,2,9.4|
2,0,8.5|
2,1,3|
];
constraint_x8_x7=[
0,1,1.2|
0,2,3.6|
1,0,0.63|
1,2,8.4|
2,0,7.9|
2,1,7.5|
];
constraint_x9_x1=[
0,1,2.1|
0,2,7|
1,0,7.5|
1,2,6.9|
2,0,7.2|
2,1,3.9|
];
constraint_x9_x2=[
0,1,2.1|
0,2,4.3|
1,0,4.4|
1,2,5.3|
2,0,4.9|
2,1,0.8|
];
constraint_x9_x4=[
0,1,8.2|
0,2,5.5|
1,0,0.15|
1,2,4.1|
2,0,3.2|
2,1,9.3|
];
constraint_x9_x7=[
0,1,3|
0,2,5|
1,0,2.3|
1,2,1.8|
2,0,0.95|
2,1,2.5|
];
constraint_x9_x8=[
0,1,4.9|
0,2,9.4|
1,0,4.3|
1,2,0.52|
2,0,8|
2,1,4|
];
constraint_x10_x3=[
0,1,5.3|
0,2,4.5|
1,0,0.52|
1,2,4.8|
2,0,4.7|
2,1,6.4|
];
constraint_x10_x4=[
0,1,2.4|
0,2,2.4|
1,0,8.3|
1,2,4.5|
2,0,1.9|
2,1,7.1|
];
constraint_x10_x5=[
0,1,3.6|
0,2,4.3|
1,0,5.7|
1,2,3.2|
2,0,9.9|
2,1,6.2|
];
constraint_x10_x7=[
0,1,0.61|
0,2,9|
1,0,0.2|
1,2,8.3|
2,0,1.4|
2,1,3.7|
];
constraint_x1_y1=[
0,0,7.2|
0,1,8.4|
0,2,3.9|
1,0,9.2|
1,1,9.6|
1,2,1.3|
2,0,8.9|
2,1,2.4|
2,2,8.8|
];
constraint_x2_y2=[
0,0,7.1|
0,1,0.92|
0,2,8.6|
1,0,4.2|
1,1,6.3|
1,2,6.6|
2,0,2.5|
2,1,4.9|
2,2,6.1|
];
initial_distribution_y1=[0.4,0.44,0.15];
initial_distribution_y2=[0.6,0.25,0.15];
transition_y1=[
0.79,0.19,0.024|
0.73,0.26,0.013|
0.5,0.12,0.38|
];
transition_y2=[
0.68,0.3,0.025|
0.29,0.26,0.45|
0.4,0.41,0.19|
];
